
Gurobi 9.1.2 (linux64) logging started Sat Jun 18 12:06:54 2022

Changed value of parameter LogFile to ls3_sym_v-(0, 7).log
   Prev:   Default: 
Changed value of parameter MIPFocus to 1
   Prev: 0  Min: 0  Max: 3  Default: 0
Changed value of parameter TimeLimit to 10800.0
   Prev: inf  Min: 0.0  Max: inf  Default: inf
Warning: variable name "X[(5, 5),(7, 5)]" has a space
Warning: constraint name "flow-constr-t0-v(7, 5)" has a space
Warning: to let Gurobi read it back, use rlp format
Gurobi Optimizer version 9.1.2 build v9.1.2rc0 (linux64)
Thread count: 32 physical cores, 64 logical processors, using up to 32 threads
Optimize a model with 5095 rows, 4608 columns and 17600 nonzeros
Model fingerprint: 0xa6e419f2
Variable types: 512 continuous, 4096 integer (4096 binary)
Coefficient statistics:
  Matrix range     [1e+00, 7e+04]
  Objective range  [1e-01, 1e-01]
  Bounds range     [1e+00, 3e+04]
  RHS range        [1e+00, 7e+04]
Presolve removed 339 rows and 352 columns
Presolve time: 0.11s
Presolved: 4756 rows, 4256 columns, 24420 nonzeros
Variable types: 512 continuous, 3744 integer (3744 binary)

Root relaxation: objective 6.400000e+01, 149 iterations, 0.00 seconds

    Nodes    |    Current Node    |     Objective Bounds      |     Work
 Expl Unexpl |  Obj  Depth IntInf | Incumbent    BestBd   Gap | It/Node Time

     0     0   64.00000    0   51          -   64.00000      -     -    0s
H    0     0                    4242.9999997   64.00000  98.5%     -    0s
H    0     0                    1121.2499997   64.00000  94.3%     -    0s
H    0     0                    1118.2499997   64.00000  94.3%     -    0s
     0     0   64.00000    0   59 1118.25000   64.00000  94.3%     -    0s
H    0     0                     132.0000000   64.00000  51.5%     -    0s
H    0     0                     116.1250000   64.00000  44.9%     -    0s
     0     0   64.00000    0   71  116.12500   64.00000  44.9%     -    0s
H    0     0                      92.1458333   64.00000  30.5%     -    0s
     0     0   64.00000    0   38   92.14583   64.00000  30.5%     -    0s
H    0     0                      86.1875000   64.00000  25.7%     -    0s
H    0     0                      85.2500000   64.00000  24.9%     -    0s
     0     0   64.00000    0   38   85.25000   64.00000  24.9%     -    0s
H    0     0                      79.3750000   64.00000  19.4%     -    1s
     0     0   64.00000    0   47   79.37500   64.00000  19.4%     -    1s
     0     0   64.00000    0   39   79.37500   64.00000  19.4%     -    1s
     0     0   64.00000    0   69   79.37500   64.00000  19.4%     -    1s
     0     0   64.00000    0   44   79.37500   64.00000  19.4%     -    1s
H    0     0                      78.4375000   64.00000  18.4%     -    1s
     0     2   64.00000    0   34   78.43750   64.00000  18.4%     -    1s
H    1     4                      77.1562500   64.00000  17.1%   554    1s
H   31    64                      76.1562500   64.00000  16.0%  53.8    2s
H   32    64                      75.1562500   64.00000  14.8%  52.2    2s
H   32    64                      74.6250000   64.00000  14.2%  52.2    2s
H   33    64                      74.5416667   64.00000  14.1%  50.8    2s
H   95   128                      74.2916667   64.00000  13.9%  19.8    3s
H   96   128                      73.7291667   64.00000  13.2%  19.6    3s
H   96   128                      73.2656250   64.00000  12.6%  19.6    3s
H   98   128                      73.0937500   64.00000  12.4%  19.3    3s
H  128   160                      72.7187500   64.00000  12.0%  15.4    3s
H  149   160                      72.5937500   64.00000  11.8%  13.4    3s
H  159   192                      72.2500000   64.00000  11.4%  12.7    4s
H  160   192                      72.1250000   64.00000  11.3%  12.6    4s
H  191   224                      72.0000000   64.00000  11.1%  10.8    6s
  2973  2776   64.00000   94   72   72.00000   64.00000  11.1%   4.5   10s
H 2974  2762                      70.8750000   64.00000  9.70%   4.5   10s
H 2977  2761                      70.5000000   64.00000  9.22%   4.5   10s
H 2978  2740                      69.7083333   64.00000  8.19%   4.5   10s
H 2981  2738                      69.3750000   64.00000  7.75%   4.5   10s
H 2988  2706                      68.2500000   64.00000  6.23%   4.5   10s
H 3005  2718                      68.0714286   64.00000  5.98%   4.5   13s
H 3008  2618                      66.3571429   64.00000  3.55%   4.4   13s
H 3029  2573                      66.0000000   64.00000  3.03%   4.4   13s
  3917  3936   64.00000   97   74   66.00000   64.00000  3.03%   5.0   16s
H 4751  3741                      65.7500000   64.00000  2.66%   4.6   17s
H 4752  3554                      65.5000000   64.00000  2.29%   4.6   17s
H 4760  3381                      65.1250000   64.00000  1.73%   4.6   19s
  4761  3382   64.00000   48   52   65.12500   64.00000  1.73%   4.6   20s
H 4764  3220                      65.0000000   64.00000  1.54%   9.3   20s
H 4802  3098                      64.6000000   64.00000  0.93%   9.8   21s
H 4856  2989                      64.5312500   64.00000  0.82%  10.2   23s
H 4859  2843                      64.5000000   64.00000  0.78%  10.3   23s
H 4887  2696                      64.0000000   64.00000  0.00%  10.4   23s

Cutting planes:
  Learned: 2
  Gomory: 1
  Cover: 51
  Implied bound: 59
  Clique: 35
  MIR: 43
  Flow cover: 69
  GUB cover: 1
  RLT: 23
  Relax-and-lift: 93

Explored 4888 nodes (60870 simplex iterations) in 23.54 seconds
Thread count was 32 (of 64 available processors)

Solution count 10: 64 64.5 64.5312 ... 66.3571

Optimal solution found (tolerance 1.00e-04)
Best objective 6.400000000000e+01, best bound 6.400000000000e+01, gap 0.0000%
